param set_len = 20;
param target = 628157538;
param values := [0] 108871701 [1] 32790618 [2] 74249793 [3] 11761006 [4] 34489709 [5] 50602981 [6] 12114462 [7] 131382961 [8] 126773631 [9] 36098646 [10] 93799245 [11] 61961820 [12] 36480145 [13] 611978 [14] 48201243 [15] 102033770 [16] 86180023 [17] 95455657 [18] 40253548 [19] 130632052 ;
